solving instance uflp nlass orlib 122 sinabc1
Couenne 0.5.8 -- an Open-Source solver for Mixed Integer Nonlinear Optimization
Mailing list: couenne@list.coin-or.org
Instructions: http://www.coin-or.org/Couenne
couenne: 
ANALYSIS TEST: Reformulating problem: 39.5 seconds
NLP0012I 
              Num      Status      Obj             It       time                 Location
NLP0014I             1         OPT 110999.68       49 48.324304
NLP0014I             2         OPT 633392.26       78 5.507771
Couenne: new cutoff value 6.3339226008e+05 (508.545 seconds)
Loaded instance "/tmp/jl_1qIwbC/model.nl"
Constraints:         7550
Variables:           7550 (2550 integer)
Auxiliaries:        10048 (0 integer)

Coin0506I Presolve 29881 (-2660) rows, 14935 (-2663) columns and 67207 (-5372) elements
Clp0006I 0  Obj 0 Primal inf 78.711367 (49) Dual inf 1.4776992e+14 (2450)
Clp0006I 374  Obj 0 Primal inf 78.711367 (49) Dual inf 1.3282038e+14 (2450)
Clp0006I 748  Obj 0 Primal inf 78.711367 (49) Dual inf 1.1802762e+14 (2450)
Clp0006I 1122  Obj 0 Primal inf 78.711367 (49) Dual inf 1.0338316e+14 (2450)
Clp0006I 1496  Obj 0 Primal inf 78.711367 (49) Dual inf 8.8481351e+13 (2450)
Clp0006I 1870  Obj 0 Primal inf 78.711367 (49) Dual inf 7.3721689e+13 (2450)
Clp0006I 2244  Obj 0 Primal inf 78.711367 (49) Dual inf 5.8961771e+13 (2450)
Clp0006I 2618  Obj 3125 Primal inf 77.622816 (82) Dual inf 5.39804e+13 (2462)
Clp0006I 2992  Obj 3125 Primal inf 74.888483 (82) Dual inf 5.6599729e+13 (2466)
Clp0006I 3366  Obj 3125 Primal inf 72.77216 (82) Dual inf 5.8227507e+13 (2440)
Clp0006I 3740  Obj 3125 Primal inf 71.574612 (81) Dual inf 5.6831907e+13 (2329)
Clp0006I 4114  Obj 3125 Primal inf 70.587397 (80) Dual inf 5.5938411e+13 (2211)
Clp0006I 4488  Obj 6250 Primal inf 62.908524 (62) Dual inf 5.4249354e+13 (2105)
Clp0006I 4862  Obj 16964.817 Primal inf 44.708544 (50) Dual inf 5.426463e+13 (1965)
Clp0006I 5236  Obj 16964.817 Primal inf 37.926433 (45) Dual inf 4.962973e+13 (1686)
Clp0006I 5610  Obj 16964.817 Primal inf 28.789079 (37) Dual inf 3.9349427e+13 (1335)
Clp0006I 5984  Obj 16964.817 Primal inf 19.578361 (29) Dual inf 3.1621481e+13 (1018)
Clp0006I 6358  Obj 16964.817 Primal inf 12.604995 (24) Dual inf 2.6415723e+13 (740)
Clp0006I 6732  Obj 16964.817 Primal inf 6.894589 (14) Dual inf 1.1987855e+13 (344)
Clp0006I 7106  Obj 10908.994 Dual inf 741663.82 (111)
Clp0006I 7342  Obj 10863.272
Clp0000I Optimal - objective value 10863.272
Clp0000I Optimal - objective value 10863.272
Clp0032I Optimal objective 10863.27229 - 7342 iterations time 0.742, Presolve 0.19
Clp0000I Optimal - objective value 10863.272
Cbc0012I Integer solution of 633392.26 found by Couenne Rounding NLP after 0 iterations and 0 nodes (0.06 seconds)
NLP Heuristic: time limit reached.
Clp0000I Optimal - objective value 10863.272
Optimality Based BT: 0 improved bounds
Probing: 0 improved bounds
Cbc0013I At root node, 0 cuts changed objective from 10863.272 to 10863.272 in 1 passes
Cbc0014I Cut generator 0 (Couenne convexifier cuts) - 0 row cuts average 0.0 elements, 1 column cuts (1 active)
Cbc0020I Exiting on maximum time
Cbc0005I Partial search - best objective 633392.26 (best possible 10863.272), took 0 iterations and 0 nodes (3087.47 seconds)
Cbc0035I Maximum depth 0, 0 variables fixed on reduced cost

 	"Not finished"

Linearization cuts added at root node:      32541
Linearization cuts added in total:          32541  (separation time: 0.567121s)
Total solve time:                          3088.8s (3088.8s in branch-and-bound)
Lower bound:                              10863.3
Upper bound:                               633392  (gap: 5730.06%)
Branch-and-bound nodes:                         0
Stats: /tmp/jl_1qIwbC/model.nl 7550 [var] 2550 [int] 7550 [con] 10048 [aux]  32541 [root]    32541 [tot] 0.567121 [sep]   3088.8 [time]  3088.85 [bb]         1.086327e+04 [lower]         6.333923e+05 [upper]       0 [nodes]
Performance of                           FBBT:	   0.853129s,        4 runs. fix:          0 shrnk:    8725.56 ubd:          0 2ubd:          0 infeas:          0
Performance of                           OBBT:	    4.31353s,        1 runs. fix:          0 shrnk:          0 ubd:          0 2ubd:          0 infeas:          0
ERROR: LoadError: MathOptInterface.GetAttributeNotAllowed{MathOptInterface.ObjectiveBound}: Getting attribute MathOptInterface.ObjectiveBound() cannot be performed: AmplNLWriter.Optimizer does not support getting the attribute MathOptInterface.ObjectiveBound(). You may want to use a `CachingOptimizer` in `AUTOMATIC` mode or you may need to call `reset_optimizer` before doing this operation if the `CachingOptimizer` is in `MANUAL` mode.
Stacktrace:
  [1] get_fallback(model::AmplNLWriter.Optimizer, attr::MathOptInterface.ObjectiveBound)
    @ MathOptInterface ~/.julia/packages/MathOptInterface/gLl4d/src/attributes.jl:409
  [2] get(::AmplNLWriter.Optimizer, ::MathOptInterface.ObjectiveBound)
    @ MathOptInterface ~/.julia/packages/MathOptInterface/gLl4d/src/attributes.jl:390
  [3] _get_model_attribute(model::MathOptInterface.Utilities.CachingOptimizer{AmplNLWriter.Optimizer, MathOptInterface.Utilities.UniversalFallback{MathOptInterface.Utilities.Model{Float64}}}, attr::MathOptInterface.ObjectiveBound)
    @ MathOptInterface.Utilities ~/.julia/packages/MathOptInterface/gLl4d/src/Utilities/cachingoptimizer.jl:865
  [4] get(model::MathOptInterface.Utilities.CachingOptimizer{AmplNLWriter.Optimizer, MathOptInterface.Utilities.UniversalFallback{MathOptInterface.Utilities.Model{Float64}}}, attr::MathOptInterface.ObjectiveBound)
    @ MathOptInterface.Utilities ~/.julia/packages/MathOptInterface/gLl4d/src/Utilities/cachingoptimizer.jl:900
  [5] get(b::MathOptInterface.Bridges.LazyBridgeOptimizer{MathOptInterface.Utilities.CachingOptimizer{AmplNLWriter.Optimizer, MathOptInterface.Utilities.UniversalFallback{MathOptInterface.Utilities.Model{Float64}}}}, attr::MathOptInterface.ObjectiveBound)
    @ MathOptInterface.Bridges ~/.julia/packages/MathOptInterface/gLl4d/src/Bridges/bridge_optimizer.jl:889
  [6] _get_model_attribute(model::MathOptInterface.Utilities.CachingOptimizer{MathOptInterface.Bridges.LazyBridgeOptimizer{MathOptInterface.Utilities.CachingOptimizer{AmplNLWriter.Optimizer, MathOptInterface.Utilities.UniversalFallback{MathOptInterface.Utilities.Model{Float64}}}}, MathOptInterface.Utilities.UniversalFallback{MathOptInterface.Utilities.Model{Float64}}}, attr::MathOptInterface.ObjectiveBound)
    @ MathOptInterface.Utilities ~/.julia/packages/MathOptInterface/gLl4d/src/Utilities/cachingoptimizer.jl:865
  [7] get(model::MathOptInterface.Utilities.CachingOptimizer{MathOptInterface.Bridges.LazyBridgeOptimizer{MathOptInterface.Utilities.CachingOptimizer{AmplNLWriter.Optimizer, MathOptInterface.Utilities.UniversalFallback{MathOptInterface.Utilities.Model{Float64}}}}, MathOptInterface.Utilities.UniversalFallback{MathOptInterface.Utilities.Model{Float64}}}, attr::MathOptInterface.ObjectiveBound)
    @ MathOptInterface.Utilities ~/.julia/packages/MathOptInterface/gLl4d/src/Utilities/cachingoptimizer.jl:900
  [8] _moi_get_result(model::MathOptInterface.Utilities.CachingOptimizer{MathOptInterface.Bridges.LazyBridgeOptimizer{MathOptInterface.Utilities.CachingOptimizer{AmplNLWriter.Optimizer, MathOptInterface.Utilities.UniversalFallback{MathOptInterface.Utilities.Model{Float64}}}}, MathOptInterface.Utilities.UniversalFallback{MathOptInterface.Utilities.Model{Float64}}}, args::MathOptInterface.ObjectiveBound)
    @ JuMP ~/.julia/packages/JuMP/i68GU/src/optimizer_interface.jl:1053
  [9] get(model::JuMP.Model, attr::MathOptInterface.ObjectiveBound)
    @ JuMP ~/.julia/packages/JuMP/i68GU/src/optimizer_interface.jl:1073
 [10] objective_bound(model::JuMP.Model)
    @ JuMP ~/.julia/packages/JuMP/i68GU/src/objective.jl:78
 [11] nl_uflp_nlass(filename::String, cost::Symbol, solver::AmplNLWriter.Optimizer, solver_params::Vector{Any}; solve::Bool, write_nl::Bool, with_cap_constraint::Bool)
    @ IterativePWLB ~/git/ipwlb/code/sources/IterativePWLB/src/nlsolver.jl:885
 [12] top-level scope
    @ ~/git/ipwlb/code/sources/IterativePWLB/test/couenne/uflp_nlass/script.jl:14
in expression starting at /home/ccontard/git/ipwlb/code/sources/IterativePWLB/test/couenne/uflp_nlass/script.jl:14
reading orlib data file /home/ccontard/git/ipwlb/code/instances/uflp/orlib/cap122.txt
